6157.0
0 0 1 0 0 1 0 0 0 0 0 0 0 0 1 1 0 0 0 0 1 1 0 0 0 0 0 0 0 1 
2 2 2 2 2 2 2 2 5 5 5 5 5 14 14 2 14 2 2 2 14 5 15 15 15 15 15 14 14 14 14 15 15 14 15 15 20 20 20 15 15 15 20 20 20 20 20 20 21 20 21 20 2 21 21 21 21 21 29 29 20 2 20 2 29 29 29 29 29 29 